c User generated cnf file
p cnf 13 62
3 -11 1 0 
13 -1 2 0 
9 -13 8 0 
12 13 -5 0 
5 8 -1 0 
10 5 -1 0 
10 7 -1 0 
6 -4 2 0 
2 3 -2 0 
2 11 -7 0 
12 12 -8 0 
12 -8 7 0 
5 -6 2 0 
4 -5 7 0 
11 -4 6 0 
8 12 -13 0 
5 1 -10 0 
3 10 -4 0 
2 9 -11 0 
11 -11 9 0 
10 -13 5 0 
3 -1 2 0 
13 -1 9 0 
2 -3 5 0 
9 2 -7 0 
8 5 -13 0 
11 5 -6 0 
8 -8 11 0 
11 10 -1 0 
7 -11 6 0 
7 -8 8 0 
1 2 -7 0 
8 -13 1 0 
10 -13 7 0 
3 -9 6 0 
6 -13 3 0 
13 -8 11 0 
1 -13 11 0 
11 7 -10 0 
2 10 -8 0 
12 -6 8 0 
12 3 -10 0 
8 -2 2 0 
4 1 -9 0 
12 -2 8 0 
8 -9 2 0 
8 10 -9 0 
6 11 -13 0 
13 -5 5 0 
8 6 -7 0 
10 3 -7 0 
1 -3 1 0 
5 5 -10 0 
10 -13 6 0 
12 10 -13 0 
9 5 -5 0 
11 -5 11 0 
1 4 -8 0 
5 -5 10 0 
3 12 -4 0 
1 -5 5 0 
7 10 -10 0 
